0 49 168 93 139 16 89 10 167 109 41 22 120 189 100 194 73 111 60 108 124 145 45 51 7 65 37 185 148 33 80 137 119 179 129 174 26 23 164 87 178 12 180 78 146 40 83 136 171 68 133 156 106 183 157 151 15 62 153 14 72 38 90 53 76 42 70 187 122 121 3 154 43 92 59 52 123 117 61 195 36 34 29 143 47 1 99 118 50 191 18 135 144 140 91 116 177 54 112 86 25 162 130 147 94 150 55 20 181 46 27 11 114 132 105 103 182 81 163 113 24 19 141 9 8 101 115 4 176 2 82 39 5 58 149 63 84 17 188 142 95 85 159 173 64 186 13 67 32 165 44 98 77 30 56 71 134 160 193 79 75 126 170 6 197 131 66 74 158 35 128 107 198 175 196 190 28 127 57 102 110 192 21 184 172 152 69 88 138 48 169 97 166 96 104 31 161 125 199 155